5,1,8,1,4,2,7,5,6,5,6,6,7,9,10,7,9,7,9,9,9,10;2,1,5,2,5,3,9,3,8,5,1,7,1,8,2,8,3,9,4,10;6,1,3,1,3,2,1,2,10,3,4,3,1,5,7,8,3,7,4,6,6,8,9,8,10,9;10,1,7,2,1,3,1,4,7,7,1,6,8,7,4,7,2,7,2,9,10,8,7,10,10,10;6,2,6,3,7,4,8,4,9,5,10,6,8,8,1,9;4,1,3,3,5,4,7,6,3,5,8,6,2,6,2,10;7,1,7,3,3,4,9,4,5,6,2,5,6,7,5,10,6,9,6,10;9,1,8,2,8,3,2,3,10,4,10,5,5,7,5,8,3,8,3,10;1,1,10,2,9,2,5,5,2,4,4,5,5,9,8,9,8,10;2,2,6,4,4,4,3,6,9,6,4,8,4,9,1,10;
